(set-logic BV) (define-fun origCir ((n376 Bool) (n379 Bool) (n371 Bool) (n373 Bool) (i_10 Bool)) Bool (and (and (and n379 (not (xor n371 n373))) n376) i_10)) (synth-fun skel ((n376 Bool) (n379 Bool) (n371 Bool) (n373 Bool) (i_10 Bool)) Bool) (declare-var n376 Bool) (declare-var n379 Bool) (declare-var n371 Bool) (declare-var n373 Bool) (declare-var i_10 Bool) (constraint (= (origCir n376 n379 n371 n373 i_10) (skel n376 n379 n371 n373 i_10))) (check-synth)
